Problem:    
Rows:       256
Columns:    89 (72 integer, 72 binary)
Non-zeros:  800
Status:     INTEGER OPTIMAL
Objective:  value = 88.904549 (MINimum)

   No.   Row name        Activity     Lower bound   Upper bound
------ ------------    ------------- ------------- -------------
     1 r.5                    1088.9             0               
     2 r.6                  -962.364      -980.595               
     3 r.7                   88.9045             0               
     4 r.8                   42.6794      -976.999               
     5 r.9                   88.9045             0               
     6 r.10                 -978.938      -979.408               
     7 r.11                   1088.9             0               
     8 r.12                 -981.284      -981.754               
     9 r.13                  88.9045             0               
    10 r.14                 -946.254      -964.484               
    11 r.15                   1088.9             0               
    12 r.16                 -935.786      -969.043               
    13 r.17                   1088.9             0               
    14 r.18                 -981.769      -982.239               
    15 r.19                  88.9045             0               
    16 r.20                  -980.31      -980.781               
    17 r.21                  88.9045             0               
    18 r.22                  42.6794      -982.965               
    19 r.23                   1088.9             0               
    20 r.24                 -966.743      -985.458               
    21 r.25                   1088.9             0               
    22 r.26                  -999.53       -999.53               
    23 r.27                  88.9045             0               
    24 r.28                   0.4702      -992.907               
    25 r.29                   1088.9             0               
    26 r.30                 -911.095      -953.775               
    27 r.31                  88.9045             0               
    28 r.32                  88.9045      -976.293               
    29 r.33                  88.9045             0               
    30 r.34                  88.9045      -953.852               
    31 r.35                   1088.9             0               
    32 r.36                 -911.095       -975.31               
    33 r.37                        1             1             = 
    34 r.38                        1             1             = 
    35 r.39                        1             1             = 
    36 r.40                        1             1             = 
    37 r.41                        1             1             = 
    38 r.42                        1             1             = 
    39 r.43                        1             1             = 
    40 r.44                        1             1             = 
    41 r.45                     1001             2               
    42 r.46                    -1001         -1001               
    43 r.47                  983.426      -979.408               
    44 r.48                     1001             2               
    45 r.49                    -1001         -1001               
    46 r.50                  1976.04      -981.754               
    47 r.51                     1001             2               
    48 r.52                    -1001         -1001               
    49 r.53                  1016.11      -964.484               
    50 r.54                     1001             2               
    51 r.55                    -1001         -1001               
    52 r.56                  2021.54      -969.043               
    53 r.57                        2             2               
    54 r.58                       -2         -1001               
    55 r.59                 -19.4054      -982.239               
    56 r.60                     1000             2               
    57 r.61                    -1000         -1001               
    58 r.62                   977.01      -980.781               
    59 r.63                     1001             2               
    60 r.64                    -1001         -1001               
    61 r.65                  2005.04      -982.965               
    62 r.66                     1001             2               
    63 r.67                    -1001         -1001               
    64 r.68                  1990.58      -985.458               
    65 r.69                 -962.834      -980.595               
    66 r.70                  42.2092      -976.999               
    67 r.71                 -962.834      -980.595               
    68 r.72                  42.2092      -976.999               
    69 r.73                 -948.732      -953.775               
    70 r.74                  51.2683      -976.293               
    71 r.75                 -953.775      -953.775               
    72 r.76                  46.2251      -976.293               
    73 r.77                     1001             2               
    74 r.78                    -1001         -1001               
    75 r.79                  2051.27      -953.852               
    76 r.80                     1001             2               
    77 r.81                    -1001         -1001               
    78 r.82                  2046.23       -975.31               
    79 r.83                     1001             2               
    80 r.84                    -1001         -1001               
    81 r.85                  3016.57       19.4054               
    82 r.86                     1001             2               
    83 r.87                    -1001         -1001               
    84 r.88                  2023.96       23.0011               
    85 r.89                     1000             2               
    86 r.90                    -1000         -1001               
    87 r.91                  2032.68      -964.484               
    88 r.92                        2             2               
    89 r.93                       -2         -1001               
    90 r.94                 -954.501      -969.043               
    91 r.95                     1001             2               
    92 r.96                    -1001         -1001               
    93 r.97                  2997.17      -982.239               
    94 r.98                     1001             2               
    95 r.99                    -1001         -1001               
    96 r.100                 1000.97      -980.781               
    97 r.101                    1000             2               
    98 r.102                   -1000         -1001               
    99 r.103                 3021.62      -982.965               
   100 r.104                       2             2               
   101 r.105                      -2         -1001               
   102 r.106                -985.458      -985.458               
   103 r.107                -979.408      -979.408               
   104 r.108                -981.754      -981.754               
   105 r.109                -979.408      -979.408               
   106 r.110                -981.754      -981.754               
   107 r.111                    1001             2               
   108 r.112                   -1001         -1001               
   109 r.113                 3067.84      -953.775               
   110 r.114                    1001             2               
   111 r.115                   -1001         -1001               
   112 r.116                 2070.19      -976.293               
   113 r.117                 1067.84      -953.852               
   114 r.118                 67.8425       -975.31               
   115 r.119                 70.1886      -953.852               
   116 r.120                -929.811       -975.31               
   117 r.121                    1001             2               
   118 r.122                   -1001         -1001               
   119 r.123                 2983.89       19.4054               
   120 r.124                    1001             2               
   121 r.125                   -1001         -1001               
   122 r.126                 1978.46       23.0011               
   123 r.127                    1000             2               
   124 r.128                   -1000         -1001               
   125 r.129                 1967.32       20.5918               
   126 r.130                       2             2               
   127 r.131                      -2         -1001               
   128 r.132                 954.501       18.2457               
   129 r.133                -964.484      -964.484               
   130 r.134                -954.016      -969.043               
   131 r.135                 34.0569      -964.484               
   132 r.136                 44.5249      -969.043               
   133 r.137                    1000             2               
   134 r.138                   -1000         -1001               
   135 r.139                 2988.93      -982.965               
   136 r.140                       2             2               
   137 r.141                      -2         -1001               
   138 r.142                 -30.957      -985.458               
   139 r.143                -946.724      -964.484               
   140 r.144                -936.256      -969.043               
   141 r.145                -946.724      -964.484               
   142 r.146                -936.256      -969.043               
   143 r.147                    1001             2               
   144 r.148                   -1001         -1001               
   145 r.149                 3035.16      -953.775               
   146 r.150                    1001             2               
   147 r.151                   -1001         -1001               
   148 r.152                 2024.69      -976.293               
   149 r.153                 1035.16      -953.852               
   150 r.154                  35.158       -975.31               
   151 r.155                 24.6901      -953.852               
   152 r.156                 -975.31       -975.31               
   153 r.157                       2             2               
   154 r.158                      -2         -1001               
   155 r.159                 19.4054       19.4054               
   156 r.160                    1000             2               
   157 r.161                   -1000         -1001               
   158 r.162                 3022.99       23.0011               
   159 r.163                    1001             2               
   160 r.164                   -1001         -1001               
   161 r.165                 1002.83       20.5918               
   162 r.166                    1001             2               
   163 r.167                   -1001         -1001               
   164 r.168                 2999.03       18.2457               
   165 r.169                    1001             2               
   166 r.170                   -1001         -1001               
   167 r.171                 2024.45      -982.965               
   168 r.172                    1001             2               
   169 r.173                   -1001         -1001               
   170 r.174                 3013.57      -985.458               
   171 r.175                -982.239      -982.239               
   172 r.176                -980.781      -980.781               
   173 r.177                -982.239      -982.239               
   174 r.178                -980.781      -980.781               
   175 r.179                       2             2               
   176 r.180                      -2         -1001               
   177 r.181                -929.326      -953.775               
   178 r.182                    1000             2               
   179 r.183                   -1000         -1001               
   180 r.184                 3069.21      -976.293               
   181 r.185                 70.6737      -953.852               
   182 r.186                -929.326       -975.31               
   183 r.187                 1069.21      -953.852               
   184 r.188                  69.215       -975.31               
   185 r.189                    1001             2               
   186 r.190                   -1001         -1001               
   187 r.191                 1994.96       19.4054               
   188 r.192                    1001             2               
   189 r.193                   -1001         -1001               
   190 r.194                 2009.42       23.0011               
   191 r.195                    1000             2               
   192 r.196                   -1000         -1001               
   193 r.197                 978.383       20.5918               
   194 r.198                       2             2               
   195 r.199                      -2         -1001               
   196 r.200                 985.458       18.2457               
   197 r.201                    1000             2               
   198 r.202                   -1000         -1001               
   199 r.203                 1011.07       35.5157               
   200 r.204                       2             2               
   201 r.205                      -2         -1001               
   202 r.206                  30.957        30.957               
   203 r.207                    1001             2               
   204 r.208                   -1001         -1001               
   205 r.209                 1975.55       17.7606               
   206 r.210                    1001             2               
   207 r.211                   -1001         -1001               
   208 r.212                 986.432       19.2194               
   209 r.213                 42.2092      -982.965               
   210 r.214                -967.213      -985.458               
   211 r.215                 42.2092      -982.965               
   212 r.216                -967.213      -985.458               
   213 r.217                -953.775      -953.775               
   214 r.218                 46.2251      -976.293               
   215 r.219                -944.353      -953.775               
   216 r.220                 55.6471      -976.293               
   217 r.221                 46.2251      -953.852               
   218 r.222                -953.775       -975.31               
   219 r.223                 55.6471      -953.852               
   220 r.224                -944.353       -975.31               
   221 r.225                    1001             2               
   222 r.226                   -1001         -1001               
   223 r.227                 932.157       20.5918               
   224 r.228                    1001             2               
   225 r.229                   -1001         -1001               
   226 r.230                 1929.81       18.2457               
   227 r.231                    1001             2               
   228 r.232                   -1001         -1001               
   229 r.233                 964.842       35.5157               
   230 r.234                    1001             2               
   231 r.235                   -1001         -1001               
   232 r.236                 1975.31        30.957               
   233 r.237                       2             2               
   234 r.238                      -2         -1001               
   235 r.239                 929.326       17.7606               
   236 r.240                    1000             2               
   237 r.241                   -1000         -1001               
   238 r.242                 930.785       19.2194               
   239 r.243                    1001             2               
   240 r.244                   -1001         -1001               
   241 r.245                    2000      -953.852               
   242 r.246                    1001             2               
   243 r.247                   -1001         -1001               
   244 r.248                    2000       -975.31               
   245 r.249                    1001             2               
   246 r.250                   -1001         -1001               
   247 r.251                 1948.73       19.4054               
   248 r.252                    1001             2               
   249 r.253                   -1001         -1001               
   250 r.254                 1953.77       23.0011               
   251 r.255                    1001             2               
   252 r.256                   -1001         -1001               
   253 r.257                    2000       46.2251               
   254 r.258                    1001             2               
   255 r.259                   -1001         -1001               
   256 r.260                    2000       23.7073               

   No. Column name       Activity     Lower bound   Upper bound
------ ------------    ------------- ------------- -------------
     1 tt                    88.9045             0               
     2 s_1_1        *              1             0             1 
     3 t_1_1                 51.2683             0               
     4 s_2_1        *              0             0             1 
     5 t_2_1                 46.2251             0               
     6 s_1_2        *              0             0             1 
     7 t_1_2                 1067.84             0               
     8 s_2_2        *              1             0             1 
     9 t_2_2                 70.1886             0               
    10 s_1_3        *              0             0             1 
    11 t_1_3                 1035.16             0               
    12 s_2_3        *              1             0             1 
    13 t_2_3                 24.6901             0               
    14 s_1_4        *              1             0             1 
    15 t_1_4                 70.6737             0               
    16 s_2_4        *              0             0             1 
    17 t_2_4                 1069.21             0               
    18 s_1_5        *              0             0             1 
    19 t_1_5                 46.2251             0               
    20 s_2_5        *              1             0             1 
    21 t_2_5                 55.6471             0               
    22 s_1_6        *              1             0             1 
    23 t_1_6                 88.4343             0               
    24 s_2_6        *              0             0             1 
    25 t_2_6                 88.4343             0               
    26 s_1_7        *              1             0             1 
    27 t_1_7                       0             0               
    28 s_2_7        *              0             0             1 
    29 t_2_7                       0             0               
    30 s_1_8        *              0             0             1 
    31 t_1_8                       0             0               
    32 s_2_8        *              1             0             1 
    33 t_2_8                       0             0               
    34 r_1_1_2      *              1             0             1 
    35 u_1_1_2      *              0             0             1 
    36 r_2_1_2      *              1             0             1 
    37 u_2_1_2      *              0             0             1 
    38 r_1_1_3      *              1             0             1 
    39 u_1_1_3      *              0             0             1 
    40 r_2_1_3      *              1             0             1 
    41 u_2_1_3      *              0             0             1 
    42 r_1_1_4      *              0             0             1 
    43 u_1_1_4      *              0             0             1 
    44 r_2_1_4      *              1             0             1 
    45 u_2_1_4      *              0             0             1 
    46 r_1_1_5      *              1             0             1 
    47 u_1_1_5      *              0             0             1 
    48 r_2_1_5      *              1             0             1 
    49 u_2_1_5      *              0             0             1 
    50 r_1_1_8      *              1             0             1 
    51 u_1_1_8      *              0             0             1 
    52 r_2_1_8      *              1             0             1 
    53 u_2_1_8      *              0             0             1 
    54 r_1_2_3      *              1             0             1 
    55 u_1_2_3      *              0             0             1 
    56 r_2_2_3      *              0             0             1 
    57 u_2_2_3      *              1             0             1 
    58 r_1_2_4      *              1             0             1 
    59 u_1_2_4      *              0             0             1 
    60 r_2_2_4      *              1             0             1 
    61 u_2_2_4      *              0             0             1 
    62 r_1_2_5      *              1             0             1 
    63 u_1_2_5      *              0             0             1 
    64 r_2_2_5      *              0             0             1 
    65 u_2_2_5      *              1             0             1 
    66 r_1_2_7      *              1             0             1 
    67 u_1_2_7      *              0             0             1 
    68 r_2_2_7      *              1             0             1 
    69 u_2_2_7      *              0             0             1 
    70 r_1_3_5      *              1             0             1 
    71 u_1_3_5      *              0             0             1 
    72 r_2_3_5      *              0             0             1 
    73 u_2_3_5      *              0             0             1 
    74 r_1_3_7      *              1             0             1 
    75 u_1_3_7      *              0             0             1 
    76 r_2_3_7      *              1             0             1 
    77 u_2_3_7      *              0             0             1 
    78 r_1_4_5      *              1             0             1 
    79 u_1_4_5      *              0             0             1 
    80 r_2_4_5      *              1             0             1 
    81 u_2_4_5      *              0             0             1 
    82 r_1_4_7      *              0             0             1 
    83 u_1_4_7      *              1             0             1 
    84 r_2_4_7      *              1             0             1 
    85 u_2_4_7      *              0             0             1 
    86 r_1_7_8      *              1             0             1 
    87 u_1_7_8      *              0             0             1 
    88 r_2_7_8      *              1             0             1 
    89 u_2_7_8      *              0             0             1 

Integer feasibility conditions:

KKT.PE: max.abs.err = 4.55e-13 on row 158
        max.rel.err = 1.11e-16 on row 190
        High quality

KKT.PB: max.abs.err = 1.14e-13 on row 22
        max.rel.err = 4.45e-16 on row 202
        High quality

End of output
